************************************************************************
file with basedata            : j60_33.bas
initial value random generator: 401456467
************************************************************************
projects                      :  1
jobs (incl. supersource/sink ):  62
horizon                       :  363
RESOURCES
  - renewable                 :  4   R
  - nonrenewable              :  0   N
  - doubly constrained        :  0   D
************************************************************************
PROJECT INFORMATION:
pronr.  #jobs rel.date duedate tardcost  MPM-Time
    1     60      0       79        5       79
************************************************************************
PRECEDENCE RELATIONS:
jobnr.    #modes  #successors   successors
   1        1          3           2   3   4
   2        1          3           5   6   9
   3        1          3          15  26  37
   4        1          2           8  34
   5        1          2          24  32
   6        1          3           7  13  23
   7        1          2          14  41
   8        1          3          10  19  26
   9        1          3          11  18  42
  10        1          3          17  18  20
  11        1          3          12  16  21
  12        1          3          13  17  25
  13        1          1          36
  14        1          3          37  47  57
  15        1          2          28  60
  16        1          2          38  52
  17        1          3          29  33  36
  18        1          1          48
  19        1          3          22  31  46
  20        1          2          28  35
  21        1          3          27  58  59
  22        1          2          25  51
  23        1          1          49
  24        1          1          44
  25        1          2          45  50
  26        1          3          30  39  40
  27        1          2          35  48
  28        1          1          57
  29        1          3          39  45  46
  30        1          1          47
  31        1          1          35
  32        1          3          50  56  61
  33        1          2          48  52
  34        1          2          37  47
  35        1          1          61
  36        1          2          39  41
  37        1          2          46  51
  38        1          1          43
  39        1          2          44  49
  40        1          3          41  43  53
  41        1          1          45
  42        1          1          49
  43        1          1          50
  44        1          2          53  55
  45        1          1          54
  46        1          2          53  56
  47        1          1          56
  48        1          1          57
  49        1          1          58
  50        1          2          54  59
  51        1          1          54
  52        1          1          55
  53        1          1          60
  54        1          1          55
  55        1          1          58
  56        1          1          59
  57        1          1          61
  58        1          1          60
  59        1          1          62
  60        1          1          62
  61        1          1          62
  62        1          0        
************************************************************************
REQUESTS/DURATIONS:
jobnr. mode duration  R 1  R 2  R 3  R 4
------------------------------------------------------------------------
  1      1     0       0    0    0    0
  2      1     9       3    0    0    0
  3      1     8       0    0    9    0
  4      1     7       0    6    0    0
  5      1     4       0   10    0    0
  6      1     2       0    0    0    7
  7      1     7       0    0    0    6
  8      1     6       4    0    0    0
  9      1     8       0    0    6    0
 10      1    10       0    0    3    0
 11      1     5       0    0    0    8
 12      1     4       6    0    0    0
 13      1     8       6    0    0    0
 14      1     2       0   10    0    0
 15      1    10       0    0    0    5
 16      1     8       3    0    0    0
 17      1     3       0    0    0    9
 18      1     1       0    0    6    0
 19      1     6       0    9    0    0
 20      1    10       2    0    0    0
 21      1     8       0    4    0    0
 22      1     2       0    8    0    0
 23      1     1       2    0    0    0
 24      1     6       2    0    0    0
 25      1     9       0    0    4    0
 26      1     5       0    0    0    6
 27      1     4       0    6    0    0
 28      1    10       0    0    0   10
 29      1     9       0    6    0    0
 30      1     5       0    2    0    0
 31      1     8       5    0    0    0
 32      1     5       0    0    6    0
 33      1     2       9    0    0    0
 34      1     6       0    8    0    0
 35      1     8       0    0    2    0
 36      1    10       0    4    0    0
 37      1     2       1    0    0    0
 38      1     3       0    0    0    8
 39      1     8       0    4    0    0
 40      1    10       1    0    0    0
 41      1     4       0    0    3    0
 42      1     1       1    0    0    0
 43      1     6       0    0    0    7
 44      1     1       0    2    0    0
 45      1     2       0    0    0    5
 46      1     3       1    0    0    0
 47      1     3       0    0    0    4
 48      1     8       0    7    0    0
 49      1     7       3    0    0    0
 50      1    10       0   10    0    0
 51      1     8       0    8    0    0
 52      1     5       0    3    0    0
 53      1     5       0    1    0    0
 54      1    10       0    0    0    2
 55      1     3       9    0    0    0
 56      1    10       0    0    0    8
 57      1     5       0    0    7    0
 58      1     8       0   10    0    0
 59      1     7       0    6    0    0
 60      1     8       1    0    0    0
 61      1    10       0    0    1    0
 62      1     0       0    0    0    0
************************************************************************
RESOURCEAVAILABILITIES:
  R 1  R 2  R 3  R 4
   11   12   10   13
************************************************************************
